(set-logic ALL)
(set-option :produce-models true)
(declare-sort BoundSet 0)
(declare-sort UnboundSet 0)
(declare-fun IsAhead (BoundSet) Bool)
(declare-fun IsMoreThanOne (BoundSet) Bool)
(declare-fun IsShownHere (BoundSet) Bool)
(declare-fun ( (Bool) Bool)
(assert (not (=> (exists ((b BoundSet)) (exists ((a BoundSet)) (and (IsAhead a) (not (IsAhead b))))) (exists ((a BoundSet)) (( (and (IsMoreThanOne a) (IsShownHere a)))))))
(check-sat)
(get-model)